144894
0,23,101,73,25,33,82,56,79,88,22,91,8,49,67,98,18,80,41,105,97,68,5,45,85,24,44,99,50,62,74,34,102,60,46,13,3,14,42,78,90,59,95,93,77,2,104,103,66,40,10,84,47,35,53,70,94,37,100,69,17,48,36,38,83,6,31,52,71,81,32,72,1,61,21,76,20,16,89,63,15,19,55,39,87,12,30,64,51,4,29,28,54,96,7,11,92,75,57,27,26,9,58,65,43,86,0